param n := 25;
param s := 7;
param t := 17;
set A :=
1 8 
1 11 
1 19 
1 24 
1 25 
2 5 
2 23 
3 1 
3 16 
4 8 
5 6 
5 9 
5 17 
6 25 
7 6 
7 9 
7 10 
7 11 
7 18 
7 20 
8 3 
8 4 
8 12 
8 13 
9 25 
10 8 
10 21 
11 4 
11 12 
12 5 
12 6 
13 4 
13 18 
14 1 
14 16 
15 2 
15 14 
15 17 
16 10 
16 19 
16 25 
18 9 
18 17 
18 19 
18 20 
19 2 
19 13 
19 16 
20 3 
20 10 
20 14 
20 17 
20 19 
21 24 
22 5 
23 9 
23 22 
24 15 
24 19 
24 21 
24 25 
25 6 
;
param: capacity:=
1 8 5.4 
1 11 7.5 
1 19 4.4 
1 24 5.0 
1 25 7.5 
2 5 3.3 
2 23 7.4 
3 1 7.5 
3 16 7.0 
4 8 7.8 
5 6 5.0 
5 9 8.3 
5 17 3.4 
6 25 4.1 
7 6 9.9 
7 9 5.9 
7 10 8.1 
7 11 5.6 
7 18 8.8 
7 20 8.9 
8 3 9.7 
8 4 5.0 
8 12 3.4 
8 13 5.4 
9 25 4.3 
10 8 4.3 
10 21 7.2 
11 4 5.3 
11 12 7.6 
12 5 5.5 
12 6 8.5 
13 4 8.9 
13 18 5.9 
14 1 4.7 
14 16 3.5 
15 2 5.4 
15 14 8.2 
15 17 5.5 
16 10 4.2 
16 19 5.5 
16 25 5.2 
18 9 7.6 
18 17 8.1 
18 19 7.9 
18 20 6.9 
19 2 9.4 
19 13 4.4 
19 16 8.4 
20 3 3.3 
20 10 4.9 
20 14 9.0 
20 17 3.0 
20 19 4.7 
21 24 8.2 
22 5 4.6 
23 9 6.1 
23 22 6.8 
24 15 6.9 
24 19 4.1 
24 21 9.4 
24 25 7.6 
25 6 7.4 
;
param: cost:=
1 8 8.5 
1 11 2.6 
1 19 7.0 
1 24 4.0 
1 25 7.6 
2 5 3.2 
2 23 3.8 
3 1 7.5 
3 16 8.7 
4 8 6.0 
5 6 6.9 
5 9 7.9 
5 17 4.9 
6 25 9.3 
7 6 7.2 
7 9 6.2 
7 10 9.6 
7 11 8.4 
7 18 2.3 
7 20 4.7 
8 3 3.4 
8 4 6.2 
8 12 7.4 
8 13 7.4 
9 25 7.8 
10 8 3.9 
10 21 8.6 
11 4 6.6 
11 12 4.8 
12 5 1.5 
12 6 5.1 
13 4 8.3 
13 18 9.9 
14 1 1.3 
14 16 8.9 
15 2 4.1 
15 14 4.9 
15 17 1.2 
16 10 9.4 
16 19 9.7 
16 25 8.1 
18 9 2.3 
18 17 8.7 
18 19 6.0 
18 20 6.4 
19 2 6.8 
19 13 6.6 
19 16 4.9 
20 3 6.5 
20 10 1.9 
20 14 5.8 
20 17 4.4 
20 19 5.1 
21 24 5.7 
22 5 9.3 
23 9 1.4 
23 22 6.1 
24 15 9.3 
24 19 4.9 
24 21 3.9 
24 25 8.1 
25 6 3.0 
;